#  HZ   S   MA   R     50.00 
! Rohde & Schwarz Vector Network Analyzer 
! Rohde-Schwarz,ZNBT8-20Port,1318700624101530,3.72
! Created: UTC 4/3/2026, 2:27:30 PM
! test scpi record-comments
! freq[Hz]                mag:S11                 ang:S11                 mag:S21                 ang:S21                 mag:S12                 ang:S12                 mag:S22                 ang:S22
 9.000000000000000E3     8.098362845919713E-1    1.054883052945279E1     1.856959860406669E-6    2.275010016892557E1     2.239963885721204E-6    4.459602274675531E1     7.480854250389581E-1    1.045771260330019E1
 4.250895500000000E7     9.811788087074728E-1    1.755494380042887E2     6.857383898921111E-3    8.295338186219821E1     6.895936476347394E-3    8.309317209084779E1     9.816148011405204E-1    1.756712491386787E2
 8.500891000000000E7     9.812526936178286E-1    1.713783920569597E2     1.362733574913554E-2    7.891503499100124E1     1.372151810859932E-2    7.978889233193286E1     9.832046571874989E-1    1.714756217533062E2
 1.275088650000000E8     9.804382103222330E-1    1.671522982312122E2     2.068564453008649E-2    7.628064876333407E1     2.043108493714819E-2    7.611907330786471E1     9.825470818829717E-1    1.673075226069693E2
 1.700088200000000E8     9.792168449955524E-1    1.629259033188169E2     2.726979662110330E-2    7.163227414498607E1     2.687949537379787E-2    7.145703406081091E1     9.826741077923927E-1    1.630006371452839E2
 2.125087750000000E8     9.776577310044456E-1    1.587417591472975E2     3.343653943489083E-2    6.779248873391646E1     3.362566812863940E-2    6.723635832954432E1     9.821808648447281E-1    1.587517744590991E2
 2.550087300000000E8     9.775120087482229E-1    1.547822919982183E2     4.057150597296776E-2    6.318058906067341E1     4.106777191063359E-2    6.315986397554354E1     9.814315118675011E-1    1.545765881985248E2
 2.975086850000000E8     9.779862501021278E-1    1.506684472971437E2     4.780622690582320E-2    5.912103300961489E1     4.821548810052979E-2    5.968036569719534E1     9.798486073715073E-1    1.503181672394356E2
 3.400086400000000E8     9.761514116647261E-1    1.464861755683519E2     5.460265231099046E-2    5.500544919954881E1     5.515788166184585E-2    5.527617875703068E1     9.787932833328252E-1    1.460188955098324E2
 3.825085950000000E8     9.737857208966274E-1    1.421188991850907E2     6.240960130266310E-2    5.098348131269292E1     6.222160548004274E-2    5.051210571336006E1     9.779114676477562E-1    1.416939178048502E2
 4.250085500000000E8     9.718024169189463E-1    1.377010965572930E2     6.974340448878862E-2    4.688582833913956E1     7.007301940244598E-2    4.660472871233947E1     9.771230627768495E-1    1.374905062325296E2
 4.675085050000000E8     9.711249375726418E-1    1.333719732664817E2     7.723036573458207E-2    4.175606774886211E1     7.717493352611876E-2    4.223180504059672E1     9.776829753423166E-1    1.332791323987994E2
 5.100084600000000E8     9.715657601277524E-1    1.292514026214396E2     8.526291912782538E-2    3.823429120238178E1     8.561107216702443E-2    3.836662948937748E1     9.764851330707564E-1    1.290519330132743E2
 5.525084150000000E8     9.719424096683000E-1    1.251232358915371E2     9.342563461443872E-2    3.366799633542896E1     9.345493342121676E-2    3.427439373761525E1     9.755272162210373E-1    1.247162060780925E2
 5.950083700000000E8     9.716031378496425E-1    1.209175007086612E2     1.017380112527685E-1    3.003425918663793E1     1.020427086063589E-1    3.002720023546868E1     9.744703998498364E-1    1.203815991046545E2
 6.375083250000000E8     9.717086918490739E-1    1.166457210382831E2     1.106076434638161E-1    2.570606583722284E1     1.113867821135577E-1    2.581623413943295E1     9.744181818952646E-1    1.161210969636309E2
 6.800082800000000E8     9.706605278489864E-1    1.122815208463755E2     1.196924036803327E-1    2.144025413625482E1     1.200062945836242E-1    2.117369293346367E1     9.741853664181525E-1    1.118603297864356E2
 7.225082350000000E8     9.682948157432915E-1    1.077918901277818E2     1.298800648713984E-1    1.708500210390121E1     1.292981114456795E-1    1.694001434405564E1     9.736287659647830E-1    1.074444891200662E2
 7.650081900000000E8     9.655205403496414E-1    1.032695472332594E2     1.396180469384121E-1    1.253025576013869E1     1.391072425685703E-1    1.213222336571991E1     9.724161777817198E-1    1.031091982366036E2
 8.075081450000000E8     9.639105676914982E-1    9.884766165581918E1     1.489430831820918E-1    8.256888807555054       1.496281796340922E-1    8.051640029831796       9.697883917830729E-1    9.864818242063214E1
 8.500081000000000E8     9.640307660038147E-1    9.434716954556252E1     1.607904567131916E-1    3.461350487407266       1.605225313028368E-1    3.577978589358604       9.688970596157537E-1    9.417584862701723E1
 8.925080550000000E8     9.631188865120742E-1    8.981382351900969E1     1.723457949671611E-1   -8.689879526198749E-1    1.718594303313178E-1   -9.341606361369417E-1    9.668175956952153E-1    8.969474185190731E1
 9.350080100000000E8     9.614270331091296E-1    8.513101382311636E1     1.841017656023411E-1   -5.463708978915985       1.847331008009319E-1   -5.504139046638747       9.648744576680599E-1    8.515067393409150E1
 9.775079650000000E8     9.563141656924541E-1    8.040406957239291E1     1.965056205728171E-1   -1.017960573604106E1     1.967941842427922E-1   -1.016883050518662E1     9.620228736879114E-1    8.061900795137521E1
 1.020007920000000E9     9.514144575216378E-1    7.568548294921760E1     2.091685695722141E-1   -1.483813157077555E1     2.104370968851665E-1   -1.493248070728757E1     9.573029509703823E-1    7.601544891403240E1
 1.062507875000000E9     9.510640471943266E-1    7.082883418111165E1     2.238835257739823E-1   -1.952217105310686E1     2.241358337211554E-1   -1.946256115411582E1     9.542281483001761E-1    7.134510099411509E1
 1.105007830000000E9     9.494095812684972E-1    6.605188135197641E1     2.404694222485754E-1   -2.433005808170223E1     2.398382699159383E-1   -2.432618226188123E1     9.507253477887058E-1    6.663676541407565E1
 1.147507785000000E9     9.437930955837296E-1    6.102478591411310E1     2.552203994919060E-1   -2.925264592133994E1     2.560283236083285E-1   -2.931187447205864E1     9.471995186700265E-1    6.179072174650460E1
 1.190007740000000E9     9.378961566876790E-1    5.586794025571647E1     2.725390835130294E-1   -3.423197236374514E1     2.725965675622011E-1   -3.424797785179752E1     9.403101245742607E-1    5.691229633137705E1
 1.232507695000000E9     9.306016992194936E-1    5.069730326648577E1     2.906478747759016E-1   -3.916490697492207E1     2.912073681523348E-1   -3.930125707044670E1     9.363013607482936E-1    5.201403178003716E1
 1.275007650000000E9     9.246588353434921E-1    4.533118490071891E1     3.106154972743456E-1   -4.441880901282433E1     3.106142095931085E-1   -4.437139083684659E1     9.304381650649659E-1    4.708999213995438E1
 1.317507605000000E9     9.184410164177468E-1    3.997590912201179E1     3.317296113778857E-1   -4.972326702470916E1     3.320821276693670E-1   -4.972445088634061E1     9.232059724510145E-1    4.202037135141153E1
 1.360007560000000E9     9.090330115362550E-1    3.433810990886262E1     3.537164225991627E-1   -5.503944113915463E1     3.531994824911345E-1   -5.499667115567376E1     9.141222239197552E-1    3.683179890264867E1
 1.402507515000000E9     8.994317049504000E-1    2.859932697424914E1     3.771096196063606E-1   -6.056656223058003E1     3.771020334961954E-1   -6.048500814414194E1     9.046749570484531E-1    3.155095358419798E1
 1.445007470000000E9     8.899014978988186E-1    2.267391868696643E1     4.030810704039432E-1   -6.609951097630611E1     4.024622541281877E-1   -6.616330847314556E1     8.934242953445490E-1    2.627535662437460E1
 1.487507425000000E9     8.782367481108467E-1    1.665908074601107E1     4.314283975752597E-1   -7.191508978969399E1     4.312847791524861E-1   -7.190138028107357E1     8.824357923229426E-1    2.088040779565562E1
 1.530007380000000E9     8.615900988537400E-1    1.033633830567296E1     4.596729799789617E-1   -7.794990819443568E1     4.608847839775592E-1   -7.789794694200171E1     8.664067444030868E-1    1.519459528033155E1
 1.572507335000000E9     8.427861495454981E-1    3.684805409672136       4.904086020509625E-1   -8.411923857590537E1     4.905025353928376E-1   -8.418263297522027E1     8.487490712229649E-1    9.477528775655113
 1.615007290000000E9     8.224221695117834E-1   -3.125886321816262       5.244919181168575E-1   -9.046590967603359E1     5.246121609981731E-1   -9.044302929099717E1     8.278032408923355E-1    3.676070184000601
 1.657507245000000E9     7.988637407901222E-1   -1.007321967685615E1     5.600827038017920E-1   -9.700275582897230E1     5.597673111076626E-1   -9.696299743755907E1     8.032791094730253E-1   -2.297963112725151
 1.700007200000000E9     7.706199323971730E-1   -1.746671419502177E1     5.965258645555479E-1   -1.039133772904677E2     5.960805391042232E-1   -1.039790708586372E2     7.752442228365930E-1   -8.388601816621838
 1.742507155000000E9     7.402109459957484E-1   -2.527002021977097E1     6.341011401820702E-1   -1.111087526550859E2     6.342408311794028E-1   -1.110985015229223E2     7.432075408008315E-1   -1.461507508853091E1
 1.785007110000000E9     7.041646426562228E-1   -3.343373572075237E1     6.725442950919966E-1   -1.184227483129709E2     6.726236906562573E-1   -1.183984952754205E2     7.077581577487966E-1   -2.086165280400925E1
 1.827507065000000E9     6.630944734868689E-1   -4.196537464884406E1     7.121567008859662E-1   -1.261192253351060E2     7.123200456149721E-1   -1.260981287551685E2     6.689549309766939E-1   -2.721540767838739E1
 1.870007020000000E9     6.166046355754318E-1   -5.093900935421718E1     7.505753237111362E-1   -1.341090093304514E2     7.504104469445310E-1   -1.340527466106656E2     6.235994785924325E-1   -3.345875226160061E1
 1.912506975000000E9     5.634771800395008E-1   -6.048798481159964E1     7.867024179391873E-1   -1.421673688788554E2     7.864064347560359E-1   -1.421708859334407E2     5.732472628108235E-1   -3.955771266746404E1
 1.955006930000000E9     5.084201572231185E-1   -7.074203574928157E1     8.200874515238352E-1   -1.504896458174600E2     8.195869185091725E-1   -1.503739100827981E2     5.211391660606194E-1   -4.556483666937226E1
 1.997506885000000E9     4.506582261786205E-1   -8.175786936950894E1     8.507438336533429E-1   -1.587409026933663E2     8.515876339151549E-1   -1.588106686692755E2     4.658176927566524E-1   -5.107930646419967E1
 2.040006840000000E9     3.917410554058052E-1   -9.376126524508200E1     8.792353914175015E-1   -1.673237407933237E2     8.797691652099890E-1   -1.672428042378125E2     4.093421373705298E-1   -5.574074158333949E1
 2.082506795000000E9     3.305582269094650E-1   -1.068257097292225E2     9.032690099562704E-1   -1.759536505393973E2     9.035713557965196E-1   -1.759349063437040E2     3.519022033181262E-1   -5.891172708793587E1
 2.125006750000000E9     2.730324037506646E-1   -1.216666554369300E2     9.213002491084294E-1    1.753876888015471E2     9.217287942910736E-1    1.754667103814746E2     2.961497236688356E-1   -6.041531795664215E1
 2.167506705000000E9     2.191052546835107E-1   -1.395401633142392E2     9.347738443375414E-1    1.668684803849465E2     9.339759792146534E-1    1.668431801287777E2     2.487828462959565E-1   -5.912939219134611E1
 2.210006660000000E9     1.758958166484541E-1   -1.623166834861895E2     9.430156375736214E-1    1.582982735711543E2     9.418803835687319E-1    1.584035625553802E2     2.130017088952056E-1   -5.471988077888421E1
 2.252506615000000E9     1.498050940524984E-1    1.695508183700583E2     9.468554672901893E-1    1.500186594963889E2     9.470277264104580E-1    1.500565733936594E2     1.907990218967723E-1   -4.709364911408739E1
 2.295006570000000E9     1.469882538276425E-1    1.388458500398532E2     9.475400850978920E-1    1.417909677887363E2     9.475300771803519E-1    1.418757460123897E2     1.837558004074173E-1   -3.769239148727179E1
 2.337506525000000E9     1.622367452141237E-1    1.122555719342274E2     9.449353998604021E-1    1.337606903829089E2     9.455820390338642E-1    1.338827864593159E2     1.928018124246685E-1   -2.943286701068367E1
 2.380006480000000E9     1.843564316810421E-1    9.122687507178536E1     9.398859402385376E-1    1.259850953743346E2     9.405632046126334E-1    1.259887634816589E2     2.137544059837443E-1   -2.492148600737238E1
 2.422506435000000E9     2.132460996371673E-1    7.428935045701057E1     9.333810869546039E-1    1.183264200383695E2     9.335771402752708E-1    1.183518741528260E2     2.381085750167245E-1   -2.404430628571210E1
 2.465006390000000E9     2.416180844206726E-1    6.037112955201911E1     9.272163157850333E-1    1.108390541248737E2     9.275662159389598E-1    1.108640503721998E2     2.599736680285835E-1   -2.500612219148550E1
 2.507506345000000E9     2.686027023376943E-1    4.907342054414539E1     9.197396907237340E-1    1.034555232931197E2     9.203309940502695E-1    1.034638041550697E2     2.810049955520000E-1   -2.729659672219146E1
 2.550006300000000E9     2.904797882459787E-1    3.919984307196586E1     9.136653353950802E-1    9.619874214041000E1     9.135117480927081E-1    9.630321506192982E1     2.986181589797374E-1   -3.068546897812450E1
 2.592506255000000E9     3.079424169267556E-1    3.026627873984448E1     9.076176975329142E-1    8.905531986910604E1     9.071777970434401E-1    8.907281016539665E1     3.146065418377345E-1   -3.485848349755909E1
 2.635006210000000E9     3.229940314301344E-1    2.160193130724566E1     9.007650198428769E-1    8.201560251817014E1     9.020678049510951E-1    8.205406250179968E1     3.277801250985076E-1   -3.998850895030073E1
 2.677506165000000E9     3.337062809426523E-1    1.358873758576528E1     8.984843933287873E-1    7.502645628375399E1     8.980013447969413E-1    7.509459639184504E1     3.363939914454233E-1   -4.504388131540380E1
 2.720006120000000E9     3.385968642069592E-1    6.122019044449478       8.946502448719600E-1    6.804731148655387E1     8.955204130171640E-1    6.812623892873026E1     3.396421421912349E-1   -5.063831352062699E1
 2.762506075000000E9     3.400470079375428E-1   -1.255963769698923       8.946844275574464E-1    6.097408446890613E1     8.950619739151254E-1    6.099542680150027E1     3.377349659246099E-1   -5.669755315442420E1
 2.805006030000000E9     3.368839655382753E-1   -8.298813262117788       8.962957336126680E-1    5.392572278816888E1     8.975402587622533E-1    5.400078538080728E1     3.324790285709893E-1   -6.315677355309920E1
 2.847505985000000E9     3.293014747709197E-1   -1.487134684426248E1     8.982445728430747E-1    4.667938457613052E1     8.989846688383994E-1    4.669969094311914E1     3.226437379418075E-1   -6.993068777319444E1
 2.890005940000000E9     3.117480188066779E-1   -2.131919150201965E1     9.031634748052260E-1    3.931195062322064E1     9.029327660389905E-1    3.934516489859939E1     3.067192561884178E-1   -7.710511213128594E1
 2.932505895000000E9     2.888001887791627E-1   -2.740569650769822E1     9.082625273483375E-1    3.169695683543833E1     9.081637731485146E-1    3.179459926199575E1     2.826642252401392E-1   -8.503726006440311E1
 2.975005850000000E9     2.612721727057000E-1   -3.285863032998768E1     9.155674458346076E-1    2.379883574348807E1     9.158015690880468E-1    2.385503939686367E1     2.509983488567515E-1   -9.400334109888131E1
 3.017505805000000E9     2.275224829211615E-1   -3.731412874823467E1     9.222403773972681E-1    1.566853260581886E1     9.217193498904743E-1    1.565729243972071E1     2.116310119802456E-1   -1.042664018456584E2
 3.060005760000000E9     1.868579129729323E-1   -3.848882048555942E1     9.289755734177001E-1    6.935982774131941       9.295053512914268E-1    7.019399698344886       1.630636224271482E-1   -1.162788892555617E2
 3.102505715000000E9     1.428618095730723E-1   -3.331113125095339E1     9.333468226933722E-1   -2.035994389602529       9.332495194789747E-1   -2.124766001138390       1.077700983933763E-1   -1.338664730324284E2
 3.145005670000000E9     1.113928342981660E-1   -1.475681627805491E1     9.332819934799379E-1   -1.169362802888801E1     9.330199575588850E-1   -1.161621685611243E1     5.282002815556234E-2   -1.780456597552763E2
 3.187505625000000E9     1.211509354754558E-1    1.508338091828869E1     9.290759929296860E-1   -2.173870736145691E1     9.292246496474220E-1   -2.166586437186454E1     7.153155196204433E-2    9.171030298963659E1
 3.230005580000000E9     1.803671044189052E-1    3.076720793479075E1     9.158123728647293E-1   -3.230101147396066E1     9.149149368517770E-1   -3.225332998407302E1     1.533106990789229E-1    5.866056436703240E1
 3.272505535000000E9     2.655567414470693E-1    3.293320552219514E1     8.904877395515709E-1   -4.330080743274006E1     8.905659654256790E-1   -4.315378040766436E1     2.468711391319478E-1    4.073589113552756E1
 3.315005490000000E9     3.604692791581395E-1    2.874473334097131E1     8.573658470412497E-1   -5.449380424800687E1     8.551503114982344E-1   -5.450501243742400E1     3.473401065411999E-1    2.630536547542466E1
 3.357505445000000E9     4.555818035146282E-1    2.163937464307431E1     8.088773320444028E-1   -6.593225154056005E1     8.089406932063613E-1   -6.590201773215195E1     4.474734435102281E-1    1.316508193186555E1
 3.400005400000000E9     5.457006569194212E-1    1.310274305933108E1     7.534146432576043E-1   -7.715821185316592E1     7.520490489702124E-1   -7.705312427272585E1     5.402741953742665E-1    9.041847606780407E-1
 3.442505355000000E9     6.292952728233104E-1    4.238786570005569       6.887341341079948E-1   -8.813244344423735E1     6.888414242089609E-1   -8.795600474601069E1     6.247923946746191E-1   -1.093943574658006E1
 3.485005310000000E9     6.989399681522277E-1   -4.713620455611125       6.214108799641359E-1   -9.868272123773070E1     6.218908969961215E-1   -9.853150015697688E1     6.979616432961560E-1   -2.193100655000537E1
 3.527505265000000E9     7.586429506240491E-1   -1.355197470453463E1     5.555786463099910E-1   -1.085360641612700E2     5.551541077005545E-1   -1.085515640279484E2     7.577279502677450E-1   -3.247455357312443E1
 3.570005220000000E9     8.061530099262707E-1   -2.212275234746518E1     4.914946898127064E-1   -1.178117368403325E2     4.921831397844909E-1   -1.178579326133515E2     8.062966612687981E-1   -4.204442615122831E1
 3.612505175000000E9     8.432782191466340E-1   -3.025084747474982E1     4.325409180681044E-1   -1.268427912138648E2     4.329432912828002E-1   -1.265860773194161E2     8.440480021216987E-1   -5.113146183282838E1
 3.655005130000000E9     8.734787745892250E-1   -3.790126470632344E1     3.791038976491448E-1   -1.349455657063676E2     3.781706605665449E-1   -1.348240317328132E2     8.747054282998988E-1   -5.959404123863274E1
 3.697505085000000E9     8.981017413564155E-1   -4.508516683454170E1     3.303153628943944E-1   -1.425694249561289E2     3.295751510895578E-1   -1.424130489253360E2     8.962604965654567E-1   -6.752638636531610E1
 3.740005040000000E9     9.130797108049297E-1   -5.178565216584681E1     2.867037990310687E-1   -1.495280319752964E2     2.865282683009583E-1   -1.495623556343518E2     9.171270112720701E-1   -7.489668640838461E1
 3.782504995000000E9     9.280492514206212E-1   -5.829556015614890E1     2.496036606456247E-1   -1.564852717309499E2     2.485692093627966E-1   -1.562233569102172E2     9.290746539615156E-1   -8.200977295389401E1
 3.825004950000000E9     9.394924669343432E-1   -6.430236020662866E1     2.157494928428560E-1   -1.626834882210731E2     2.148831561112212E-1   -1.626737104344656E2     9.396663235057422E-1   -8.875543102744804E1
 3.867504905000000E9     9.490894214798949E-1   -7.026271529868684E1     1.843680196243823E-1   -1.686940524556896E2     1.852848707654766E-1   -1.686686134272895E2     9.482657264982695E-1   -9.514091959181073E1
 3.910004860000000E9     9.540133910278220E-1   -7.594752892228387E1     1.585326243280769E-1   -1.744169793387817E2     1.586999545121722E-1   -1.745603514813103E2     9.550321288473360E-1   -1.012757325229111E2
 3.952504815000000E9     9.586894480542153E-1   -8.143749881726113E1     1.353328493353672E-1    1.798812046665917E2     1.357618065525984E-1    1.799713527874182E2     9.621165666522777E-1   -1.071716003366049E2
 3.995004770000000E9     9.623702081805020E-1   -8.682330294483025E1     1.148047347523900E-1    1.748301643291175E2     1.148513954153920E-1    1.746267062893057E2     9.630227377401990E-1   -1.129094098575002E2
 4.037504725000000E9     9.687320120074014E-1   -9.193942010721123E1     9.492425747688692E-2    1.696066211103024E2     9.641995917039733E-2    1.701032694637670E2     9.647137676234011E-1   -1.184949423784598E2
 4.080004680000000E9     9.702039380527449E-1   -9.692465080806490E1     7.891160362552950E-2    1.647674298921100E2     7.969680814307106E-2    1.647183648438078E2     9.689697964541572E-1   -1.239232432082272E2
 4.122504635000000E9     9.711406375045999E-1   -1.018945247751069E2     6.491502537011680E-2    1.607773699710698E2     6.460039859668619E-2    1.604168229970213E2     9.704850060505023E-1   -1.291089179536336E2
 4.165004590000000E9     9.724674256808797E-1   -1.066305890152067E2     4.960023598851768E-2    1.562889979707204E2     5.054543237225197E-2    1.563157441656516E2     9.731276233477351E-1   -1.343696170760172E2
 4.207504545000000E9     9.734660795495893E-1   -1.113782899705700E2     3.875124896113728E-2    1.530499560691698E2     3.915262857147395E-2    1.535030576601467E2     9.747511849524086E-1   -1.394994930930516E2
 4.250004500000000E9     9.762310616367348E-1   -1.160546100297593E2     2.871662044967797E-2    1.514548310524480E2     2.730730280869743E-2    1.509309128681258E2     9.756257129519894E-1   -1.445643094487806E2
 4.292504455000000E9     9.773902644290369E-1   -1.208278383604824E2     1.762927290811394E-2    1.516530067576344E2     1.792014544575080E-2    1.516731757563470E2     9.753959821935331E-1   -1.494997587469711E2
 4.335004410000000E9     9.764975508618283E-1   -1.252432438558340E2     9.311819813210885E-3    1.624180956871039E2     9.257469954093904E-3    1.626961465045928E2     9.750571697247579E-1   -1.542803356317445E2
 4.377504365000000E9     9.791050567781181E-1   -1.296245976262035E2     4.756568327114086E-3   -1.390729627145399E2     4.791320668438098E-3   -1.392088736863201E2     9.777792023427344E-1   -1.591212542399798E2
 4.420004320000000E9     9.772954607871561E-1   -1.341314766327175E2     9.452955875745021E-3   -8.920706372956302E1     9.326003087431759E-3   -9.051335105912369E1     9.768675516973889E-1   -1.639014157281157E2
 4.462504275000000E9     9.769255575850242E-1   -1.385457006336561E2     1.581156674911781E-2   -8.121183278402845E1     1.572902180884136E-2   -8.045128947948652E1     9.775536772746098E-1   -1.686919605130111E2
 4.505004230000000E9     9.766663834740483E-1   -1.427670552825878E2     2.193610698317349E-2   -8.054745605720824E1     2.187146514938406E-2   -8.027214501112520E1     9.752113325810442E-1   -1.732470333893817E2
 4.547504185000000E9     9.755603714278104E-1   -1.470181086445353E2     2.775226555974655E-2   -8.264293753423836E1     2.775847907269607E-2   -8.229705756950364E1     9.765349120036068E-1   -1.779173290385814E2
 4.590004140000000E9     9.759846107451986E-1   -1.513071710574139E2     3.305760942377006E-2   -8.570186298328744E1     3.340308997675065E-2   -8.607845042168007E1     9.762197361685473E-1    1.774190625414827E2
 4.632504095000000E9     9.759892822400530E-1   -1.554740326173672E2     3.800394966178228E-2   -8.871429630165092E1     3.811809112543695E-2   -8.636881663003545E1     9.767120009268443E-1    1.728793478282304E2
 4.675004050000000E9     9.772074861829153E-1   -1.597297749221489E2     4.235337231490961E-2   -9.224358490869240E1     4.148914190193614E-2   -9.078820238650177E1     9.773949988361509E-1    1.683320921914944E2
 4.717504005000000E9     9.762593790436693E-1   -1.638794344445884E2     4.695759373053916E-2   -9.649211292733094E1     4.573006787320835E-2   -9.538476057512108E1     9.775209557897828E-1    1.638300244992660E2
 4.760003960000000E9     9.777166162935209E-1   -1.680719303903624E2     5.152313391214167E-2   -9.922306729168369E1     4.992631049069347E-2   -9.856259878018356E1     9.764946212226707E-1    1.591467644245334E2
 4.802503915000000E9     9.768742631315903E-1   -1.721756574910182E2     5.289415356725698E-2   -1.039193742735641E2     5.463714575136253E-2   -1.032111663344465E2     9.757600686861339E-1    1.545449132863241E2
 4.845003870000000E9     9.741639072953407E-1   -1.764338534098132E2     5.778427635866563E-2   -1.066107610277838E2     5.843748361762938E-2   -1.068335636432343E2     9.726867002752069E-1    1.500942769013526E2
 4.887503825000000E9     9.748044237517892E-1    1.794422351348711E2     6.087650625635138E-2   -1.122609679285393E2     5.999926065672426E-2   -1.113763466645853E2     9.757086211968199E-1    1.454733706136605E2
 4.930003780000000E9     9.750988693719498E-1    1.752852818967010E2     6.490737585538003E-2   -1.157900917275815E2     6.431540792346772E-2   -1.161553856473282E2     9.748986288795591E-1    1.410812145106746E2
 4.972503735000000E9     9.737130278274768E-1    1.711763382362559E2     6.599128126794045E-2   -1.207124801237891E2     6.695876500974784E-2   -1.213377271332319E2     9.727055630461249E-1    1.365910923598329E2
 5.015003690000000E9     9.749849812567589E-1    1.670208239515587E2     6.847768510083171E-2   -1.246274908687008E2     6.788034743983862E-2   -1.241628432134793E2     9.709843409877464E-1    1.319520409874420E2
 5.057503645000000E9     9.726516526893776E-1    1.629157833025954E2     7.100534269810689E-2   -1.282382010380003E2     7.164032175637440E-2   -1.279972612687013E2     9.703342330914916E-1    1.274283639702016E2
 5.100003600000000E9     9.747910268262474E-1    1.587818570138253E2     7.306472662228954E-2   -1.327482676901603E2     7.438614539762385E-2   -1.327648408125576E2     9.735714093965953E-1    1.229717890066944E2
 5.142503555000000E9     9.730104032293873E-1    1.546309653822495E2     7.535824583468551E-2   -1.364443998071050E2     7.388149647220010E-2   -1.372377444144489E2     9.705143512753254E-1    1.184670957818932E2
 5.185003510000000E9     9.731030703102753E-1    1.504887971137474E2     7.586815827051184E-2   -1.421743486838563E2     7.642089834940732E-2   -1.409020074716622E2     9.693881582049434E-1    1.140407055613916E2
 5.227503465000000E9     9.725243054678223E-1    1.463149328670503E2     7.920473415206809E-2   -1.457545817118677E2     7.879732028818930E-2   -1.459257992740669E2     9.684455293417659E-1    1.094821400334913E2
 5.270003420000000E9     9.717486321628165E-1    1.420771455000945E2     7.968508808265613E-2   -1.502286988068538E2     7.991282253694917E-2   -1.498979103096466E2     9.662228419913128E-1    1.048968706008426E2
 5.312503375000000E9     9.711771364653005E-1    1.380047940272010E2     8.082968722057332E-2   -1.544284348531204E2     8.006556913969139E-2   -1.545018611825250E2     9.669672771884278E-1    1.003925344687579E2
 5.355003330000000E9     9.694187026186228E-1    1.337848250206104E2     8.197805321940778E-2   -1.591970237405490E2     8.160854702760767E-2   -1.588351179883497E2     9.653862364782674E-1    9.588419582170700E1
 5.397503285000000E9     9.671605680121732E-1    1.296861538657129E2     8.210692404102735E-2   -1.635314392763348E2     8.325853892517632E-2   -1.641549866048265E2     9.646570598460867E-1    9.123142308576161E1
 5.440003240000000E9     9.665032340919558E-1    1.253739279502863E2     8.348285404892462E-2   -1.678356467604812E2     8.269895902889564E-2   -1.682148918535002E2     9.659854503547337E-1    8.670943243360902E1
 5.482503195000000E9     9.661563978952931E-1    1.210581653585987E2     8.394458077515517E-2   -1.719341019771742E2     8.260690781126816E-2   -1.732893587590065E2     9.648887746585367E-1    8.218433662399056E1
 5.525003150000000E9     9.640426128257917E-1    1.168555735975253E2     8.370116269514526E-2   -1.771913401329381E2     8.156171684940493E-2   -1.773209757475855E2     9.609030961786802E-1    7.750540036226535E1
 5.567503105000000E9     9.617879725400530E-1    1.126044268123661E2     8.196637948152043E-2    1.779446276130352E2     8.183148706672841E-2    1.783459058414714E2     9.594627363256987E-1    7.295254928846607E1
 5.610003060000000E9     9.603473692584180E-1    1.083498854070572E2     8.145316407006997E-2    1.735824730938068E2     8.122984403570131E-2    1.735030823413047E2     9.593373348154615E-1    6.827336410473767E1
 5.652503015000000E9     9.589157251386148E-1    1.041571078174077E2     7.998560002230196E-2    1.692576839638282E2     8.029805243658344E-2    1.691908863000506E2     9.585299457005469E-1    6.371635152967247E1
 5.695002970000000E9     9.572409691744437E-1    1.000299596147630E2     7.883157599762070E-2    1.650034677665543E2     7.978866955840218E-2    1.653883833115043E2     9.587719951477585E-1    5.910105273020458E1
 5.737502925000000E9     9.543349084835766E-1    9.579120550619294E1     7.732647938772613E-2    1.606590174205771E2     7.799151434591839E-2    1.600524100431312E2     9.568263057053227E-1    5.442746126279550E1
 5.780002880000000E9     9.541311121392467E-1    9.149897965116766E1     7.611416305058233E-2    1.559716566050223E2     7.690376674162588E-2    1.558587188575861E2     9.552909954031639E-1    4.973565821730285E1
 5.822502835000000E9     9.534573238278669E-1    8.717316854160748E1     7.380748406955207E-2    1.505285082059989E2     7.534773406168926E-2    1.512247879467179E2     9.535050350353241E-1    4.495527190601483E1
 5.865002790000000E9     9.526824766832965E-1    8.277523298997367E1     7.221497998267933E-2    1.446798428428247E2     7.180079900726387E-2    1.461130882924671E2     9.517021398854968E-1    4.020959427495293E1
 5.907502745000000E9     9.527187662917358E-1    7.816935510309324E1     6.915442713869989E-2    1.415458994818549E2     6.877606104952720E-2    1.407479697584373E2     9.525809037782905E-1    3.550212829564303E1
 5.950002700000000E9     9.523636202166343E-1    7.377384828142561E1     6.532602995836813E-2    1.356615857051006E2     6.522971912230939E-2    1.363662266637249E2     9.524707687491366E-1    3.076105404053448E1
 5.992502655000000E9     9.516764021732788E-1    6.912548497201504E1     6.096231959724246E-2    1.302031804050050E2     6.019273285586744E-2    1.309358361509462E2     9.507796604829890E-1    2.588947250990370E1
 6.035002610000000E9     9.497312561639870E-1    6.450968756013872E1     5.569751334304732E-2    1.257581242626453E2     5.632771207503010E-2    1.256310795292790E2     9.497860160223056E-1    2.103676277888491E1
 6.077502565000000E9     9.479548800047735E-1    5.982502413880860E1     5.095384704101066E-2    1.200344993131866E2     5.010396674217755E-2    1.203494834700290E2     9.479899363196079E-1    1.620153889197674E1
 6.120002520000000E9     9.485126679163283E-1    5.513323158113236E1     4.331801220593729E-2    1.151424121657461E2     4.376695176155525E-2    1.132690101502536E2     9.478161102211594E-1    1.119078638940511E1
 6.162502475000000E9     9.446343973183559E-1    5.021411724624104E1     3.545563088362559E-2    1.079550760120664E2     3.477266161981628E-2    1.085876246495647E2     9.471721501973521E-1    6.068121630991968
 6.205002430000000E9     9.435004619694297E-1    4.508044721776257E1     2.710699605415758E-2    1.013002396428679E2     2.799320372474924E-2    1.029976880452149E2     9.458997824423827E-1    1.006132742470808
 6.247502385000000E9     9.447803983729730E-1    4.003211107185548E1     1.760829306046635E-2    9.140043386466027E1     1.760503830691108E-2    9.223386106750209E1     9.455078329113311E-1   -4.126700290056712
 6.290002340000000E9     9.389308089183002E-1    3.488356841983180E1     6.423704829965681E-3    7.075441689689569E1     6.669914147960389E-3    7.111155263779338E1     9.448359097782160E-1   -9.276256829288521
 6.332502295000000E9     9.336938925076453E-1    2.952358558322760E1     8.019352377923412E-3   -6.623767009983455E1     7.991417343809802E-3   -6.655571842123365E1     9.445779057628170E-1   -1.464123199008353E1
 6.375002250000000E9     9.334694995342552E-1    2.382439961471983E1     2.298455533746742E-2   -8.597729097424384E1     2.292097357019643E-2   -8.549033109563813E1     9.427925668563060E-1   -2.015956048943921E1
 6.417502205000000E9     9.286577124149513E-1    1.805450848199874E1     4.156159726360429E-2   -9.478095053407311E1     4.099301334643482E-2   -9.411349902295801E1     9.424048088696976E-1   -2.586262352383993E1
 6.460002160000000E9     9.239037008914069E-1    1.203879423506743E1     6.288980077680063E-2   -1.012318024437122E2     6.260293779193317E-2   -1.018414477899519E2     9.400086125689472E-1   -3.164395779338506E1
 6.502502115000000E9     9.133160359323812E-1    5.472776397535376       9.095559928462374E-2   -1.092812932024216E2     9.008932470795104E-2   -1.088044129115470E2     9.341518583684684E-1   -3.768470431749582E1
 6.545002070000000E9     9.040443937940178E-1   -1.442101137565599       1.214653998621972E-1   -1.166486858423326E2     1.220351747062603E-1   -1.164767159378240E2     9.277501685697477E-1   -4.402842194571900E1
 6.587502025000000E9     8.904434985228709E-1   -8.851996925692236       1.598110112297477E-1   -1.241183293185712E2     1.607152121258179E-1   -1.238356136835936E2     9.199783671596964E-1   -5.066647813518831E1
 6.630001980000000E9     8.704317107216749E-1   -1.721367259038113E1     2.051769549879440E-1   -1.324488677809920E2     2.058444216680434E-1   -1.325387709422405E2     9.059166170003178E-1   -5.768343534425622E1
 6.672501935000000E9     8.440047562017061E-1   -2.655709027878118E1     2.618135185657074E-1   -1.418631374164009E2     2.614859636608660E-1   -1.415767852396600E2     8.851370142489703E-1   -6.506424550765470E1
 6.715001890000000E9     8.039339539175576E-1   -3.709905584967471E1     3.259106114437354E-1   -1.520013366729503E2     3.282575642085561E-1   -1.518747373467054E2     8.555308897621628E-1   -7.273753969732847E1
 6.757501845000000E9     7.459530941745103E-1   -4.957722408580580E1     4.054661950561634E-1   -1.632120445262951E2     4.074820360682332E-1   -1.631173439773640E2     8.115074850477473E-1   -8.094330772845952E1
 6.800001800000000E9     6.651051240377941E-1   -6.426375688051255E1     4.952207813280775E-1   -1.759924845269358E2     4.950274094618157E-1   -1.758785106361035E2     7.458518723810384E-1   -8.947173703786807E1
 6.842501755000000E9     5.546317027629498E-1   -8.187853244426647E1     5.886602476273233E-1    1.698085980539998E2     5.873812293229983E-1    1.699515926402767E2     6.593139104484150E-1   -9.723288289554814E1
 6.885001710000000E9     4.186497111769948E-1   -1.038822586863382E2     6.755436339873983E-1    1.544276651264683E2     6.748073072148396E-1    1.545532146862262E2     5.531832002000706E-1   -1.028412284347361E2
 6.927501665000000E9     2.742051219747252E-1   -1.350410414042745E2     7.417512307790383E-1    1.385096070243972E2     7.420892278035848E-1    1.385660938820997E2     4.518325604873668E-1   -1.033333064651667E2
 6.970001620000000E9     1.766559016745951E-1    1.708643817522249E2     7.800266869013227E-1    1.224968903611120E2     7.802429577902453E-1    1.227788392647979E2     3.856792108094085E-1   -9.774015562778212E1
 7.012501575000000E9     2.074297589284140E-1    1.090988773573320E2     7.925361761333568E-1    1.080655659836303E2     7.910200591055121E-1    1.082222557821965E2     3.778156808055629E-1   -8.811578621115176E1
 7.055001530000000E9     3.011517229671798E-1    7.460032192808781E1     7.840814137384384E-1    9.475964592814732E1     7.843160423180040E-1    9.480161423829644E1     4.139677780831878E-1   -8.301477407876997E1
 7.097501485000000E9     3.917345104808702E-1    5.386021166340181E1     7.628514582975642E-1    8.276428599812601E1     7.623969254706404E-1    8.281917817399790E1     4.659450598953290E-1   -8.284259442975576E1
 7.140001440000000E9     4.656846626115550E-1    3.969394978131024E1     7.382243158771415E-1    7.226794392395851E1     7.397958788400931E-1    7.245501492158284E1     5.138321295001297E-1   -8.571412340963843E1
 7.182501395000000E9     5.225179893258847E-1    2.816913021291576E1     7.178434565561127E-1    6.284674788293032E1     7.153924817096066E-1    6.289516999207261E1     5.595915657527271E-1   -9.072300541493631E1
 7.225001350000000E9     5.647367786234833E-1    1.850371757041103E1     6.935290275554270E-1    5.405707583521113E1     6.927984950872561E-1    5.434134358788209E1     5.931686382527066E-1   -9.608746318457820E1
 7.267501305000000E9     6.012309374068113E-1    9.924532930014342       6.747449184244491E-1    4.635582841251165E1     6.744851071283449E-1    4.647622731439847E1     6.217075437723877E-1   -1.024467286582844E2
 7.310001260000000E9     6.314385618290140E-1    2.306573946098730       6.564184448277728E-1    3.893253611117161E1     6.579422726918284E-1    3.909260880591535E1     6.418946722737726E-1   -1.089236222085574E2
 7.352501215000000E9     6.516135982367468E-1   -4.326147238161515       6.445219248735510E-1    3.192944217688788E1     6.445524037899319E-1    3.195701755744765E1     6.574598720271708E-1   -1.153335507913914E2
 7.395001170000000E9     6.710433451734341E-1   -1.039151192522339E1     6.331860565282886E-1    2.530864705162791E1     6.332578188190799E-1    2.532266989043332E1     6.683893457504798E-1   -1.218416093273326E2
 7.437501125000000E9     6.837972039244431E-1   -1.613367521406923E1     6.241992440908958E-1    1.852264253250374E1     6.250183117681863E-1    1.876205633082567E1     6.774938167321244E-1   -1.285116657656254E2
 7.480001080000000E9     6.955223610741295E-1   -2.164146200829371E1     6.190552713344412E-1    1.211190214220362E1     6.193646738453726E-1    1.217747798254461E1     6.845313662509132E-1   -1.353481211835991E2
 7.522501035000000E9     7.043648653171032E-1   -2.698582021634894E1     6.111286270614609E-1    5.967215584170055       6.126879342691675E-1    6.091105741535877       6.908533701716399E-1   -1.419385501816365E2
 7.565000990000000E9     7.132525393677956E-1   -3.194583157943817E1     6.059520616716149E-1   -8.929498404854645E-2    6.067782724180897E-1   -1.323210456353295E-1    6.911237926435760E-1   -1.487111866883545E2
 7.607500945000000E9     7.198038525367501E-1   -3.676031207199745E1     6.061247188453058E-1   -6.381228024761018       6.019748363177032E-1   -6.451285108899184       6.969496664225724E-1   -1.555656470797540E2
 7.650000900000000E9     7.333441792849967E-1   -4.147235866104182E1     6.086328733575547E-1   -1.229277200859222E1     6.035856206180786E-1   -1.216278599938022E1     6.960221032527133E-1   -1.629284934259537E2
 7.692500855000000E9     7.356051919289148E-1   -4.581337062763249E1     6.021962160594607E-1   -1.845112178502918E1     6.016255723302196E-1   -1.817018531101083E1     6.947600581111020E-1   -1.704808203699744E2
 7.735000810000000E9     7.390943814118731E-1   -5.023205166548497E1     5.984336498241895E-1   -2.475417476963539E1     6.007338333802833E-1   -2.422653913929899E1     6.946404026434660E-1   -1.775270627559291E2
 7.777500765000000E9     7.445020931012919E-1   -5.432593417628829E1     5.942224333456810E-1   -3.007339537988925E1     5.978640505192856E-1   -3.023161600007665E1     6.911410319788867E-1    1.749636350526663E2
 7.820000720000000E9     7.436019731339762E-1   -5.793456097780788E1     5.979219509655387E-1   -3.593085573319485E1     5.963867615966517E-1   -3.612206916007701E1     6.917688926037543E-1    1.669172966188975E2
 7.862500675000000E9     7.480868544412206E-1   -6.244798892921779E1     5.946700594599503E-1   -4.242052921917335E1     5.964489857142492E-1   -4.214814740879545E1     6.865163875512512E-1    1.592168875850672E2
 7.905000630000000E9     7.546336501210653E-1   -6.639965082237489E1     5.973707018468160E-1   -4.831543725376870E1     5.980870339017561E-1   -4.804075039604348E1     6.822970705770758E-1    1.508741859974452E2
 7.947500585000000E9     7.571311914867875E-1   -7.007167020689936E1     5.964935321176817E-1   -5.462001698883116E1     5.989849872917944E-1   -5.403473819826670E1     6.769770777885767E-1    1.427786778720320E2
 7.990000540000000E9     7.569948882532572E-1   -7.390495509911977E1     5.980544810507824E-1   -6.025836918163046E1     5.972919819679385E-1   -6.007547111292919E1     6.763291031667502E-1    1.343739322886331E2
 8.032500495000000E9     7.617786787920617E-1   -7.745895275370893E1     5.979853250398781E-1   -6.617705864670300E1     5.957272640879591E-1   -6.595624104281060E1     6.697203281653363E-1    1.258449738475519E2
 8.075000450000000E9     7.668012568868214E-1   -8.117466793016317E1     5.970363600541551E-1   -7.264557786364125E1     5.969432538595265E-1   -7.236781881430871E1     6.684344476187317E-1    1.169138998208882E2
 8.117500405000000E9     7.720875718120136E-1   -8.470055285686117E1     5.959566938044023E-1   -7.834942374879324E1     5.973040235488282E-1   -7.828211062367120E1     6.627074243541151E-1    1.082686064988500E2
 8.160000360000000E9     7.778164182388574E-1   -8.849954625410268E1     5.967968653693599E-1   -8.442118253837519E1     5.947623478534614E-1   -8.456892490923026E1     6.621734242719408E-1    9.881678956298535E1
 8.202500315000000E9     7.824723310849278E-1   -9.194471053086379E1     5.934777182697712E-1   -9.045976422535384E1     5.963119007607177E-1   -9.023563949190145E1     6.601918248483027E-1    8.983923470836929E1
 8.245000270000000E9     7.889489452261044E-1   -9.521278160634238E1     5.928326222351059E-1   -9.685227753544429E1     5.895284951304465E-1   -9.635614721259323E1     6.591639944838423E-1    8.075266585185214E1
 8.287500225000000E9     7.919414081888908E-1   -9.874427237107197E1     5.876389726740826E-1   -1.028736869690846E2     5.859752005149662E-1   -1.027938683811528E2     6.585742307812523E-1    7.114819491826174E1
 8.330000180000000E9     8.062417379299948E-1   -1.018493677076330E2     5.879125846263807E-1   -1.091516913129481E2     5.844068889227734E-1   -1.087172715596757E2     6.641888249471837E-1    6.197130667872478E1
 8.372500135000000E9     8.144462853903069E-1   -1.059312926041629E2     5.761835265064120E-1   -1.156072013262964E2     5.815224546349550E-1   -1.151596613547259E2     6.626556020294903E-1    5.240904881897456E1
 8.415000090000000E9     8.239179637699870E-1   -1.090829621370735E2     5.790900540788286E-1   -1.211844824005364E2     5.772166181385863E-1   -1.210801515582862E2     6.650536244056869E-1    4.310843941737048E1
 8.457500045000000E9     8.344729289713696E-1   -1.125549998930320E2     5.683602731522516E-1   -1.273472905125445E2     5.703551878955533E-1   -1.275400753354383E2     6.698545898250010E-1    3.376709577024600E1
 8.500000000000000E9     8.457949168864247E-1   -1.165095221296877E2     5.670805381630913E-1   -1.334074409958170E2     5.657811705797364E-1   -1.333330900592729E2     6.745410317574793E-1    2.444500962644172E1
